20 10
57 76 39 52 40 10 24 38 9 74 96 43 89 9 92 90 25 35 70 26 
35 96 15 92 22 51 57 7 80 96 39 25 78 88 85 39 46 76 47 8 
58 16 80 35 53 95 41 4 98 87 36 49 55 38 54 3 32 18 52 6 
72 51 67 41 54 55 80 1 9 72 23 58 73 8 73 19 91 93 22 50 
43 59 16 58 74 17 45 64 62 62 91 84 79 84 72 5 34 47 32 39 
9 89 27 62 71 64 6 52 76 85 84 25 92 7 18 74 48 12 98 4 
84 79 18 23 92 14 65 54 12 14 32 87 37 94 37 7 97 23 28 37 
81 52 62 98 52 57 32 73 41 58 79 12 99 24 34 42 15 69 15 15 
35 63 81 66 82 21 9 61 37 53 33 71 46 39 73 25 34 39 78 78 
31 90 30 48 60 51 49 7 6 34 46 14 8 44 52 13 98 36 53 50 
